&CONTROL
   tprnfor          = .true.
/
&SYSTEM
   ecutwfc          = 60
   ecutrho          = 480
   occupations      = 'smearing'
   degauss          = 0.01
   smearing         = 'gaussian'
   input_dft        = 'vdw-df2-b86r'
   ntyp             = 2
   nat              = 64
   ibrav            = 0
/
&ELECTRONS
   electron_maxstep = 100
   conv_thr         = 1e-09
   mixing_mode      = 'plain'
   mixing_beta      = 0.7
   diagonalization  = 'rmm-davidson'
/
&IONS
/
&CELL
/

ATOMIC_SPECIES
B 10.81 b_pbe_v1.4.uspp.F.UPF
H 1.008 h_pbe_v1.4.uspp.F.UPF

K_POINTS automatic
4 4 1  0 0 0

CELL_PARAMETERS angstrom
12.05338749200000 -0.04324781400000 0.00000000000000
6.06497553400000 10.56256736900000 0.00000000000000
0.00000000000000 0.00000000000000 19.00000129100000

ATOMIC_POSITIONS angstrom
B 0.0002198996 0.0002862635 9.5001019798 
B 1.5097876871 0.8131604095 9.4999035326 
B 1.5163377575 2.6409627898 9.4998201283 
B 3.0259677105 3.4537369897 9.5000077842 
B 3.0325817810 5.2814881861 9.4999254090 
B 4.5421895778 6.0943370497 9.5002704137 
B 4.5488016706 7.9220617914 9.5000365785 
B 6.0583760042 8.7350854948 9.5000107158 
B 3.0134157129 -0.0107768928 9.5000273516 
B 4.5230752064 0.8020098885 9.4999864926 
B 4.5296487656 2.6298330884 9.5001870701 
B 6.0391891118 3.4427653348 9.5001925578 
B 6.0458312588 5.2705155233 9.4999187315 
B 7.5553250469 6.0834956674 9.4996436201 
B 7.5619503877 7.9112085273 9.4998498189 
B 9.0716243142 8.7239863668 9.4999201572 
B 6.0267830150 -0.0216589866 9.4997187420 
B 7.5363916128 0.7912188971 9.4997843497 
B 7.5429328767 2.6189981130 9.4998112372 
B 9.0524845947 3.4319682414 9.4998475573 
B 9.0590645586 5.2597461870 9.4996549758 
B 10.5687171788 6.0725243643 9.4998838151 
B 10.5752974962 7.9002420796 9.5000066349 
B 12.0849736737 8.7131471598 9.4998579575 
B 9.0401717449 -0.0324494892 9.4998843481 
B 10.5497803601 0.7805564769 9.4999860503 
B 10.5562865243 2.6083251464 9.4998734031 
B 12.0659085845 3.4212288735 9.4998551589 
B 12.0725120632 5.2488745658 9.4998725084 
B 13.5820767396 6.0617665156 9.4997404545 
B 13.5886535410 7.8894670705 9.4999418607 
B 15.0983578155 8.7022730583 9.5000230456 
H 1.5129975183 1.7271195804 10.4672147075 
H 1.5131479892 1.7271309832 8.5324751045 
H 3.0288223477 4.3676513647 10.4673760069 
H 3.0298339727 4.3674890879 8.5325982592 
H 4.5460815862 7.0083939787 10.4675072889 
H 4.5457246469 7.0080052950 8.5327298779 
H 6.0615965932 9.6488904644 10.4674539489 
H 6.0616513141 9.6490994378 8.5326873785 
H 4.5264016017 1.7159351357 10.4674959302 
H 4.5266299523 1.7159266117 8.5327034493 
H 6.0423786783 4.3568628745 10.4674197189 
H 6.0425436718 4.3565505109 8.5326574560 
H 7.5584962392 6.9972375265 10.4671207305 
H 7.5588904455 6.9974786296 8.5323419842 
H 9.0750975048 9.6377575314 10.4673901429 
H 9.0751633486 9.6378340975 8.5325812266 
H 7.5403580143 1.7050473319 10.4671570940 
H 7.5399830638 1.7051056231 8.5324210091 
H 9.0557550168 4.3459611912 10.4671180592 
H 9.0555668607 4.3457357778 8.5323428179 
H 10.5723560503 6.9863053058 10.4673689502 
H 10.5719352045 6.9863859569 8.5325595876 
H 12.0885927922 9.6271434033 10.4671090126 
H 12.0885358050 9.6269473084 8.5323521810 
H 10.5533028959 1.6944799174 10.4672544785 
H 10.5530406403 1.6943506036 8.5325259687 
H 12.0688436516 4.3350047640 10.4672620005 
H 12.0689768712 4.3352075244 8.5324950496 
H 13.5853074894 6.9755705353 10.4672832137 
H 13.5847336062 6.9756962630 8.5325534484 
H 15.1014050613 9.6161778783 10.4673725427 
H 15.1021718754 9.6160298931 8.5325910448 

