&CONTROL
/
&SYSTEM
   ecutwfc          = 50
   ecutrho          = 400
   occupations      = 'smearing'
   degauss          = 0.01
   smearing         = 'gaussian'
   ntyp             = 2
   nat              = 13
   ibrav            = 0
/
&ELECTRONS
   electron_maxstep = 100
   conv_thr         = 1e-06
   mixing_mode      = 'plain'
   mixing_beta      = 0.5
   diagonalization  = 'david'
/
ATOMIC_SPECIES
Al 26.9815385 al_pbe_v1.uspp.F.UPF
Au 196.966569 au_pbe_v1.uspp.F.UPF
K_POINTS automatic
8 8 1  0 0 0
CELL_PARAMETERS angstrom
5.72756492761104 0.00000000000000 0.00000000000000
0.00000000000000 5.72756492761104 0.00000000000000
0.00000000000000 0.00000000000000 13.75000000000000
ATOMIC_POSITIONS angstrom
  Al          0.0000000000        0.0000000000        4.0000000000  0  0  0
  Al          2.8637824638        0.0000000000        4.0000000000  0  0  0
  Al          0.0000000000        2.8637824638        4.0000000000  0  0  0
  Al          2.8637824638        2.8637824638        4.0000000000  0  0  0
  Al          1.4318912319        1.4318912319        6.0250000000  0  0  0
  Al          4.2956736957        1.4318912319        6.0250000000  0  0  0
  Al          1.4318912319        4.2956736957        6.0250000000  0  0  0
  Al          4.2956736957        4.2956736957        6.0250000000  0  0  0
  Al          0.0477085491       -0.0730973820        7.9980770891
  Al          2.8127317355       -0.0779861385        7.9934887979
  Al          0.0477069001        2.9368777565        7.9980796755
  Al          2.8127395493        2.9417426886        7.9935276784
  Au          3.8183625311        1.4317039805        9.4145117569
