&CONTROL
   calculation      = 'nscf'
   tprnfor          = .true.
/
&SYSTEM
   ecutwfc          = 60
   ecutrho          = 480
   occupations      = 'smearing'
   degauss          = 0.01
   smearing         = 'gaussian'
   input_dft        = 'vdw-df2-b86r'
   ntyp             = 2
   nat              = 64
   ibrav            = 0
/
&ELECTRONS
   electron_maxstep = 100
   conv_thr         = 1e-09
   mixing_mode      = 'plain'
   mixing_beta      = 0.7
   diagonalization  = 'rmm-davidson'
/
&IONS
/
&CELL
/

ATOMIC_SPECIES
B 10.81 b_pbe_v1.4.uspp.F.UPF
H 1.008 h_pbe_v1.4.uspp.F.UPF

K_POINTS automatic
16 16 1  0 0 0

CELL_PARAMETERS angstrom
12.05338749200000 -0.04324781400000 0.00000000000000
6.06497553400000 10.56256736900000 0.00000000000000
0.00000000000000 0.00000000000000 19.00000129100000

ATOMIC_POSITIONS angstrom
B 0.0000000000 0.0000000000 9.5000000430 
B 1.5095186560 0.8128154200 9.5000000430 
B 1.5162432810 2.6406406370 9.5000000430 
B 3.0257619370 3.4534560560 9.5000000430 
B 3.0324877670 5.2812812740 9.5000000430 
B 4.5420064230 6.0940966930 9.5000000430 
B 4.5487310480 7.9219219100 9.5000000430 
B 6.0582497040 8.7347373300 9.5000000430 
B 3.0133456680 -0.0108131590 9.5000000430 
B 4.5228643230 0.8020022610 9.5000000430 
B 4.5295889490 2.6298286830 9.5000000430 
B 6.0391076040 3.4426428980 9.5000000430 
B 6.0458334350 5.2704693200 9.5000000430 
B 7.5553520910 6.0832835340 9.5000000430 
B 7.5620767160 7.9111099570 9.5000000430 
B 9.0715953720 8.7239241710 9.5000000430 
B 6.0266913350 -0.0216251120 9.5000000430 
B 7.5362099910 0.7911891020 9.5000000430 
B 7.5429346160 2.6190155250 9.5000000430 
B 9.0524532720 3.4318309440 9.5000000430 
B 9.0591791020 5.2596561610 9.5000000430 
B 10.5686977580 6.0724715810 9.5000000430 
B 10.5754223830 7.9002967980 9.5000000430 
B 12.0849410390 8.7131122180 9.5000000430 
B 9.0400370030 -0.0324382710 9.5000000430 
B 10.5495556590 0.7803771490 9.5000000430 
B 10.5562802840 2.6082035710 9.5000000430 
B 12.0657989400 3.4210177860 9.5000000430 
B 12.0725247700 5.2488442080 9.5000000430 
B 13.5820434260 6.0616584220 9.5000000430 
B 13.5887680510 7.8894848450 9.5000000430 
B 15.0982867070 8.7022990590 9.5000000430 
H 1.5129020620 1.7268340990 10.4673962630 
H 1.5129020620 1.7268340990 8.5326050280 
H 3.0291465480 4.3674747360 10.4673962630 
H 3.0291465480 4.3674747360 8.5326050280 
H 4.5453898290 7.0081153720 10.4673962630 
H 4.5453898290 7.0081153720 8.5326050280 
H 6.0616343150 9.6487572140 10.4673962630 
H 6.0616343150 9.6487572140 8.5326050280 
H 4.5262477290 1.7160221450 10.4673962630 
H 4.5262477290 1.7160221450 8.5326050280 
H 6.0424922160 4.3566627820 10.4673962630 
H 6.0424922160 4.3566627820 8.5326050280 
H 7.5587354970 6.9973034190 10.4673962630 
H 7.5587354970 6.9973034190 8.5326050280 
H 9.0749799830 9.6379440560 10.4673962630 
H 9.0749799830 9.6379440560 8.5326050280 
H 7.5395933970 1.7052089860 10.4673962630 
H 7.5395933970 1.7052089860 8.5326050280 
H 9.0558378840 4.3458496230 10.4673962630 
H 9.0558378840 4.3458496230 8.5326050280 
H 10.5720811640 6.9864902600 10.4673962630 
H 10.5720811640 6.9864902600 8.5326050280 
H 12.0883256510 9.6271308970 10.4673962630 
H 12.0883256510 9.6271308970 8.5326050280 
H 10.5529390650 1.6943970330 10.4673962630 
H 10.5529390650 1.6943970330 8.5326050280 
H 12.0691823460 4.3350376700 10.4673962630 
H 12.0691823460 4.3350376700 8.5326050280 
H 13.5854268320 6.9756783070 10.4673962630 
H 13.5854268320 6.9756783070 8.5326050280 
H 15.1016701130 9.6163189430 10.4673962630 
H 15.1016701130 9.6163189430 8.5326050280 

