BEGIN
BEGIN_PATH_INPUT
&PATH
    restart_mode      = "restart"
    string_method     = "neb"
    opt_scheme        = "broyden"
    CI_scheme         = "no-CI"
    nstep_path        = 1000
    path_thr          = 0.05
    ds                = 2.0
    k_max             = 0.3
    k_min             = 0.2
    num_of_images     = 7
/
END_PATH_INPUT

BEGIN_ENGINE_INPUT
&CONTROL
/

&SYSTEM
   ecutwfc          = 50
   ecutrho          = 400
   occupations      = 'smearing'
   degauss          = 0.01
   smearing         = 'gaussian'
   ntyp             = 2
   nat              = 13
   ibrav            = 0
/
&ELECTRONS
   electron_maxstep = 100
   conv_thr         = 1e-06
   mixing_mode      = 'plain'
   mixing_beta      = 0.5
   diagonalization  = 'david'
/

ATOMIC_SPECIES
Al 26.9815385 al_pbe_v1.uspp.F.UPF
Au 196.966569 au_pbe_v1.uspp.F.UPF

K_POINTS automatic
8 8 1  0 0 0

CELL_PARAMETERS angstrom
5.72756492761104 0.00000000000000 0.00000000000000
0.00000000000000 5.72756492761104 0.00000000000000
0.00000000000000 0.00000000000000 13.75000000000000

BEGIN_POSITIONS
FIRST_IMAGE
ATOMIC_POSITIONS angstrom
Al 0.0000000000 0.0000000000 4.0000000000  0 0 0
Al 2.8637824638 0.0000000000 4.0000000000  0 0 0
Al 0.0000000000 2.8637824638 4.0000000000  0 0 0
Al 2.8637824638 2.8637824638 4.0000000000  0 0 0
Al 1.4318912319 1.4318912319 6.0250000000  0 0 0
Al 4.2956736957 1.4318912319 6.0250000000  0 0 0
Al 1.4318912319 4.2956736957 6.0250000000  0 0 0
Al 4.2956736957 4.2956736957 6.0250000000  0 0 0
Al -0.0727584676 -0.0727584676 7.9964398610 
Al 2.9365409314 -0.0727584676 7.9964398610 
Al -0.0727584676 2.9365409314 7.9964398610 
Al 2.9365409314 2.9365409314 7.9964398610 
Au 1.4318912319 1.4318912319 9.4013916343 
LAST_IMAGE
ATOMIC_POSITIONS angstrom
Al 0.0000000000 0.0000000000 4.0000000000  0 0 0
Al 2.8637824638 0.0000000000 4.0000000000  0 0 0
Al 0.0000000000 2.8637824638 4.0000000000  0 0 0
Al 2.8637824638 2.8637824638 4.0000000000  0 0 0
Al 1.4318912319 1.4318912319 6.0250000000  0 0 0
Al 4.2956736957 1.4318912319 6.0250000000  0 0 0
Al 1.4318912319 4.2956736957 6.0250000000  0 0 0
Al 4.2956736957 4.2956736957 6.0250000000  0 0 0
Al 0.0723226214 -0.0731270933 7.9984399474 
Al 2.7914598424 -0.0731270933 7.9984399474 
Al 0.0723226214 2.9369095572 7.9984399474 
Al 2.7914598424 2.9369095572 7.9984399474 
Au 4.2956736957 1.4318912319 9.4043801855 
END_POSITIONS

