BEGIN
BEGIN_PATH_INPUT
&PATH
    restart_mode      = "restart"
    string_method     = "neb"
    opt_scheme        = "broyden"
    CI_scheme         = "no-CI"
    nstep_path        = 1000
    path_thr          = 0.05
    ds                = 2.0
    k_max             = 0.3
    k_min             = 0.2
    num_of_images     = 7
/
END_PATH_INPUT

BEGIN_ENGINE_INPUT
&CONTROL
/

&SYSTEM
   ecutwfc          = 50
   ecutrho          = 400
   occupations      = 'smearing'
   degauss          = 0.01
   smearing         = 'gaussian'
   ntyp             = 2
   nat              = 13
   ibrav            = 0
/
&ELECTRONS
   electron_maxstep = 100
   conv_thr         = 1e-06
   mixing_mode      = 'plain'
   mixing_beta      = 0.5
   diagonalization  = 'david'
/

ATOMIC_SPECIES
Al 26.9815385 al_pbe_v1.uspp.F.UPF
Au 196.966569 au_pbe_v1.uspp.F.UPF

K_POINTS automatic
8 8 1  0 0 0

CELL_PARAMETERS angstrom
5.72756492761104 0.00000000000000 0.00000000000000
0.00000000000000 5.72756492761104 0.00000000000000
0.00000000000000 0.00000000000000 13.75000000000000

BEGIN_POSITIONS
FIRST_IMAGE
ATOMIC_POSITIONS angstrom
  Al          0.0000000000        0.0000000000        4.0000000000  0  0  0
  Al          2.8637824638        0.0000000000        4.0000000000  0  0  0
  Al          0.0000000000        2.8637824638        4.0000000000  0  0  0
  Al          2.8637824638        2.8637824638        4.0000000000  0  0  0
  Al          1.4318912319        1.4318912319        6.0250000000  0  0  0
  Al          4.2956736957        1.4318912319        6.0250000000  0  0  0
  Al          1.4318912319        4.2956736957        6.0250000000  0  0  0
  Al          4.2956736957        4.2956736957        6.0250000000  0  0  0
  Al         -0.0727584676       -0.0727584676        7.9964398610
  Al          2.9365409314       -0.0727584676        7.9964398610
  Al         -0.0727584676        2.9365409314        7.9964398610
  Al          2.9365409314        2.9365409314        7.9964398610
  Au          1.4318912319        1.4318912319        9.4013916343
INTERMEDIATE_IMAGE
ATOMIC_POSITIONS angstrom
  Al          0.0000000000        0.0000000000        4.0000000000  0  0  0
  Al          2.8637824638        0.0000000000        4.0000000000  0  0  0
  Al          0.0000000000        2.8637824638        4.0000000000  0  0  0
  Al          2.8637824638        2.8637824638        4.0000000000  0  0  0
  Al          1.4318912319        1.4318912319        6.0250000000  0  0  0
  Al          4.2956736957        1.4318912319        6.0250000000  0  0  0
  Al          1.4318912319        4.2956736957        6.0250000000  0  0  0
  Al          4.2956736957        4.2956736957        6.0250000000  0  0  0
  Al         -0.0487542509       -0.0731842019        7.9964395674
  Al          2.9153261952       -0.0777323589        7.9921699402
  Al         -0.0487564557        2.9369635153        7.9964435927
  Al          2.9153183359        2.9414889129        7.9922087960
  Au          1.9092521960        1.4317044933        9.4131848158
INTERMEDIATE_IMAGE
ATOMIC_POSITIONS angstrom
  Al          0.0000000000        0.0000000000        4.0000000000  0  0  0
  Al          2.8637824638        0.0000000000        4.0000000000  0  0  0
  Al          0.0000000000        2.8637824638        4.0000000000  0  0  0
  Al          2.8637824638        2.8637824638        4.0000000000  0  0  0
  Al          1.4318912319        1.4318912319        6.0250000000  0  0  0
  Al          4.2956736957        1.4318912319        6.0250000000  0  0  0
  Al          1.4318912319        4.2956736957        6.0250000000  0  0  0
  Al          4.2956736957        4.2956736957        6.0250000000  0  0  0
  Al         -0.0244621812       -0.0731787119        7.9968380295
  Al          2.8921535904       -0.0861078824        7.9846454349
  Al         -0.0244656034        2.9369565988        7.9968437711
  Al          2.8921418959        2.9498222674        7.9847486614
  Au          2.3865482702        1.4315890317        9.4301155297
INTERMEDIATE_IMAGE
ATOMIC_POSITIONS angstrom
  Al          0.0000000000        0.0000000000        4.0000000000  0  0  0
  Al          2.8637824638        0.0000000000        4.0000000000  0  0  0
  Al          0.0000000000        2.8637824638        4.0000000000  0  0  0
  Al          2.8637824638        2.8637824638        4.0000000000  0  0  0
  Al          1.4318912319        1.4318912319        6.0250000000  0  0  0
  Al          4.2956736957        1.4318912319        6.0250000000  0  0  0
  Al          1.4318912319        4.2956736957        6.0250000000  0  0  0
  Al          4.2956736957        4.2956736957        6.0250000000  0  0  0
  Al         -0.0005830722       -0.0731159799        7.9972813967
  Al          2.8640365100       -0.0908192291        7.9805502955
  Al         -0.0005864589        2.9368940359        7.9972868782
  Al          2.8640365027        2.9545093045        7.9806908051
  Au          2.8638100568        1.4315530423        9.4394628611
INTERMEDIATE_IMAGE
ATOMIC_POSITIONS angstrom
  Al          0.0000000000        0.0000000000        4.0000000000  0  0  0
  Al          2.8637824638        0.0000000000        4.0000000000  0  0  0
  Al          0.0000000000        2.8637824638        4.0000000000  0  0  0
  Al          2.8637824638        2.8637824638        4.0000000000  0  0  0
  Al          1.4318912319        1.4318912319        6.0250000000  0  0  0
  Al          4.2956736957        1.4318912319        6.0250000000  0  0  0
  Al          1.4318912319        4.2956736957        6.0250000000  0  0  0
  Al          4.2956736957        4.2956736957        6.0250000000  0  0  0
  Al          0.0232926183       -0.0730891646        7.9976922996
  Al          2.8359208586       -0.0862368669        7.9852968775
  Al          0.0232900165        2.9368682517        7.9976964870
  Al          2.8359325162        2.9499512611        7.9854001105
  Au          3.3410758526        1.4315887159        9.4306714327
INTERMEDIATE_IMAGE
ATOMIC_POSITIONS angstrom
  Al          0.0000000000        0.0000000000        4.0000000000  0  0  0
  Al          2.8637824638        0.0000000000        4.0000000000  0  0  0
  Al          0.0000000000        2.8637824638        4.0000000000  0  0  0
  Al          2.8637824638        2.8637824638        4.0000000000  0  0  0
  Al          1.4318912319        1.4318912319        6.0250000000  0  0  0
  Al          4.2956736957        1.4318912319        6.0250000000  0  0  0
  Al          1.4318912319        4.2956736957        6.0250000000  0  0  0
  Al          4.2956736957        4.2956736957        6.0250000000  0  0  0
  Al          0.0477085491       -0.0730973820        7.9980770891
  Al          2.8127317355       -0.0779861385        7.9934887979
  Al          0.0477069001        2.9368777565        7.9980796755
  Al          2.8127395493        2.9417426886        7.9935276784
  Au          3.8183625311        1.4317039805        9.4145117569
LAST_IMAGE
ATOMIC_POSITIONS angstrom
  Al          0.0000000000        0.0000000000        4.0000000000  0  0  0
  Al          2.8637824638        0.0000000000        4.0000000000  0  0  0
  Al          0.0000000000        2.8637824638        4.0000000000  0  0  0
  Al          2.8637824638        2.8637824638        4.0000000000  0  0  0
  Al          1.4318912319        1.4318912319        6.0250000000  0  0  0
  Al          4.2956736957        1.4318912319        6.0250000000  0  0  0
  Al          1.4318912319        4.2956736957        6.0250000000  0  0  0
  Al          4.2956736957        4.2956736957        6.0250000000  0  0  0
  Al          0.0723226214       -0.0731270933        7.9984399474
  Al          2.7914598424       -0.0731270933        7.9984399474
  Al          0.0723226214        2.9369095572        7.9984399474
  Al          2.7914598424        2.9369095572        7.9984399474
  Au          4.2956736957        1.4318912319        9.4043801855
END_POSITIONS


